Code 1134
Dimension, Median
   128       16
 Facility, Client, Transportation Cost
     1        1           1
     1        2           3
     1        3           1
     1        5           4
     1        9           4
     1       17           2
     1       33           0
     1       65           4
     2        1           0
     2        2           4
     2        4           1
     2        6           2
     2       10           2
     2       18           4
     2       34           2
     2       66           2
     3        1           1
     3        3           3
     3        4           0
     3        7           0
     3       11           0
     3       19           2
     3       35           3
     3       67           3
     4        2           2
     4        3           0
     4        4           0
     4        8           3
     4       12           4
     4       20           4
     4       36           1
     4       68           1
     5        1           2
     5        5           3
     5        6           2
     5        7           1
     5       13           2
     5       21           0
     5       37           3
     5       69           4
     6        2           1
     6        5           3
     6        6           1
     6        8           1
     6       14           2
     6       22           4
     6       38           3
     6       70           2
     7        3           1
     7        5           2
     7        7           0
     7        8           0
     7       15           1
     7       23           4
     7       39           1
     7       71           2
     8        4           3
     8        6           1
     8        7           0
     8        8           0
     8       16           0
     8       24           2
     8       40           2
     8       72           1
     9        1           2
     9        9           0
     9       10           3
     9       11           0
     9       13           1
     9       25           4
     9       41           4
     9       73           1
    10        2           4
    10        9           1
    10       10           2
    10       12           3
    10       14           1
    10       26           3
    10       42           4
    10       74           2
    11        3           2
    11        9           0
    11       11           0
    11       12           3
    11       15           1
    11       27           0
    11       43           4
    11       75           2
    12        4           2
    12       10           3
    12       11           2
    12       12           0
    12       16           3
    12       28           3
    12       44           0
    12       76           0
    13        5           2
    13        9           0
    13       13           2
    13       14           0
    13       15           4
    13       29           2
    13       45           0
    13       77           0
    14        6           3
    14       10           2
    14       13           3
    14       14           3
    14       16           4
    14       30           4
    14       46           2
    14       78           3
    15        7           4
    15       11           3
    15       13           0
    15       15           2
    15       16           0
    15       31           0
    15       47           1
    15       79           4
    16        8           4
    16       12           3
    16       14           0
    16       15           3
    16       16           0
    16       32           1
    16       48           4
    16       80           4
    17        1           1
    17       17           1
    17       18           3
    17       19           1
    17       21           1
    17       25           4
    17       49           3
    17       81           2
    18        2           4
    18       17           1
    18       18           2
    18       20           1
    18       22           2
    18       26           4
    18       50           4
    18       82           0
    19        3           2
    19       17           4
    19       19           1
    19       20           3
    19       23           1
    19       27           0
    19       51           2
    19       83           3
    20        4           0
    20       18           1
    20       19           0
    20       20           0
    20       24           3
    20       28           3
    20       52           3
    20       84           0
    21        5           0
    21       17           3
    21       21           2
    21       22           2
    21       23           0
    21       29           2
    21       53           1
    21       85           0
    22        6           0
    22       18           1
    22       21           2
    22       22           1
    22       24           1
    22       30           0
    22       54           2
    22       86           2
    23        7           0
    23       19           0
    23       21           2
    23       23           1
    23       24           1
    23       31           0
    23       55           0
    23       87           2
    24        8           0
    24       20           0
    24       22           2
    24       23           4
    24       24           4
    24       32           0
    24       56           0
    24       88           1
    25        9           0
    25       17           0
    25       25           2
    25       26           0
    25       27           2
    25       29           2
    25       57           4
    25       89           3
    26       10           0
    26       18           0
    26       25           2
    26       26           2
    26       28           3
    26       30           2
    26       58           2
    26       90           4
    27       11           0
    27       19           3
    27       25           0
    27       27           2
    27       28           0
    27       31           4
    27       59           2
    27       91           0
    28       12           0
    28       20           4
    28       26           1
    28       27           4
    28       28           1
    28       32           3
    28       60           3
    28       92           0
    29       13           0
    29       21           1
    29       25           2
    29       29           2
    29       30           0
    29       31           1
    29       61           1
    29       93           4
    30       14           4
    30       22           2
    30       26           2
    30       29           3
    30       30           1
    30       32           2
    30       62           2
    30       94           2
    31       15           0
    31       23           3
    31       27           0
    31       29           3
    31       31           2
    31       32           3
    31       63           2
    31       95           0
    32       16           4
    32       24           3
    32       28           2
    32       30           1
    32       31           1
    32       32           3
    32       64           4
    32       96           4
    33        1           4
    33       33           2
    33       34           2
    33       35           3
    33       37           0
    33       41           4
    33       49           4
    33       97           1
    34        2           4
    34       33           2
    34       34           1
    34       36           4
    34       38           0
    34       42           0
    34       50           0
    34       98           2
    35        3           1
    35       33           4
    35       35           1
    35       36           2
    35       39           1
    35       43           3
    35       51           1
    35       99           3
    36        4           2
    36       34           3
    36       35           1
    36       36           2
    36       40           2
    36       44           2
    36       52           0
    36      100           3
    37        5           2
    37       33           0
    37       37           1
    37       38           3
    37       39           1
    37       45           0
    37       53           1
    37      101           0
    38        6           4
    38       34           4
    38       37           3
    38       38           3
    38       40           1
    38       46           3
    38       54           4
    38      102           2
    39        7           1
    39       35           4
    39       37           1
    39       39           1
    39       40           0
    39       47           3
    39       55           2
    39      103           3
    40        8           3
    40       36           3
    40       38           1
    40       39           0
    40       40           3
    40       48           0
    40       56           2
    40      104           4
    41        9           2
    41       33           0
    41       41           2
    41       42           4
    41       43           1
    41       45           3
    41       57           0
    41      105           4
    42       10           2
    42       34           0
    42       41           3
    42       42           4
    42       44           4
    42       46           3
    42       58           3
    42      106           4
    43       11           0
    43       35           4
    43       41           3
    43       43           1
    43       44           1
    43       47           4
    43       59           4
    43      107           4
    44       12           2
    44       36           1
    44       42           4
    44       43           2
    44       44           1
    44       48           4
    44       60           1
    44      108           1
    45       13           0
    45       37           3
    45       41           0
    45       45           3
    45       46           1
    45       47           3
    45       61           2
    45      109           3
    46       14           2
    46       38           1
    46       42           4
    46       45           1
    46       46           2
    46       48           0
    46       62           2
    46      110           4
    47       15           4
    47       39           4
    47       43           3
    47       45           0
    47       47           1
    47       48           1
    47       63           1
    47      111           3
    48       16           3
    48       40           3
    48       44           0
    48       46           4
    48       47           3
    48       48           1
    48       64           4
    48      112           0
    49       17           3
    49       33           4
    49       49           4
    49       50           2
    49       51           1
    49       53           3
    49       57           3
    49      113           3
    50       18           4
    50       34           2
    50       49           1
    50       50           1
    50       52           4
    50       54           2
    50       58           4
    50      114           1
    51       19           0
    51       35           0
    51       49           3
    51       51           1
    51       52           2
    51       55           1
    51       59           4
    51      115           0
    52       20           4
    52       36           4
    52       50           2
    52       51           4
    52       52           0
    52       56           2
    52       60           4
    52      116           4
    53       21           0
    53       37           3
    53       49           3
    53       53           4
    53       54           3
    53       55           3
    53       61           0
    53      117           2
    54       22           3
    54       38           1
    54       50           2
    54       53           0
    54       54           3
    54       56           4
    54       62           4
    54      118           2
    55       23           4
    55       39           4
    55       51           1
    55       53           1
    55       55           2
    55       56           4
    55       63           2
    55      119           4
    56       24           4
    56       40           1
    56       52           2
    56       54           3
    56       55           1
    56       56           4
    56       64           3
    56      120           1
    57       25           3
    57       41           1
    57       49           1
    57       57           0
    57       58           0
    57       59           2
    57       61           4
    57      121           2
    58       26           4
    58       42           1
    58       50           4
    58       57           4
    58       58           1
    58       60           4
    58       62           3
    58      122           0
    59       27           1
    59       43           3
    59       51           3
    59       57           1
    59       59           3
    59       60           0
    59       63           2
    59      123           4
    60       28           1
    60       44           4
    60       52           4
    60       58           1
    60       59           2
    60       60           3
    60       64           3
    60      124           0
    61       29           1
    61       45           0
    61       53           2
    61       57           1
    61       61           3
    61       62           0
    61       63           2
    61      125           0
    62       30           1
    62       46           4
    62       54           3
    62       58           1
    62       61           4
    62       62           3
    62       64           2
    62      126           1
    63       31           1
    63       47           2
    63       55           0
    63       59           0
    63       61           4
    63       63           1
    63       64           4
    63      127           0
    64       32           3
    64       48           3
    64       56           4
    64       60           2
    64       62           4
    64       63           1
    64       64           4
    64      128           3
    65        1           1
    65       65           0
    65       66           4
    65       67           1
    65       69           4
    65       73           3
    65       81           2
    65       97           0
    66        2           4
    66       65           0
    66       66           3
    66       68           0
    66       70           4
    66       74           4
    66       82           1
    66       98           1
    67        3           4
    67       65           3
    67       67           1
    67       68           4
    67       71           2
    67       75           2
    67       83           0
    67       99           2
    68        4           3
    68       66           1
    68       67           4
    68       68           1
    68       72           2
    68       76           1
    68       84           3
    68      100           2
    69        5           1
    69       65           0
    69       69           4
    69       70           4
    69       71           1
    69       77           3
    69       85           2
    69      101           4
    70        6           0
    70       66           2
    70       69           1
    70       70           0
    70       72           0
    70       78           2
    70       86           2
    70      102           0
    71        7           0
    71       67           1
    71       69           1
    71       71           0
    71       72           1
    71       79           4
    71       87           1
    71      103           1
    72        8           4
    72       68           0
    72       70           2
    72       71           4
    72       72           3
    72       80           4
    72       88           1
    72      104           4
    73        9           3
    73       65           3
    73       73           2
    73       74           3
    73       75           0
    73       77           2
    73       89           0
    73      105           0
    74       10           0
    74       66           3
    74       73           3
    74       74           0
    74       76           1
    74       78           1
    74       90           1
    74      106           3
    75       11           4
    75       67           1
    75       73           2
    75       75           0
    75       76           4
    75       79           4
    75       91           2
    75      107           1
    76       12           2
    76       68           3
    76       74           2
    76       75           2
    76       76           4
    76       80           2
    76       92           1
    76      108           3
    77       13           4
    77       69           1
    77       73           3
    77       77           4
    77       78           1
    77       79           3
    77       93           0
    77      109           4
    78       14           0
    78       70           1
    78       74           4
    78       77           1
    78       78           3
    78       80           2
    78       94           2
    78      110           4
    79       15           0
    79       71           3
    79       75           2
    79       77           1
    79       79           0
    79       80           3
    79       95           1
    79      111           0
    80       16           0
    80       72           1
    80       76           2
    80       78           2
    80       79           4
    80       80           2
    80       96           4
    80      112           1
    81       17           1
    81       65           3
    81       81           3
    81       82           1
    81       83           0
    81       85           3
    81       89           1
    81      113           2
    82       18           1
    82       66           0
    82       81           4
    82       82           4
    82       84           3
    82       86           2
    82       90           1
    82      114           2
    83       19           1
    83       67           2
    83       81           1
    83       83           2
    83       84           1
    83       87           1
    83       91           1
    83      115           2
    84       20           0
    84       68           1
    84       82           4
    84       83           1
    84       84           2
    84       88           2
    84       92           4
    84      116           1
    85       21           0
    85       69           0
    85       81           3
    85       85           3
    85       86           1
    85       87           0
    85       93           2
    85      117           4
    86       22           4
    86       70           0
    86       82           0
    86       85           1
    86       86           3
    86       88           3
    86       94           2
    86      118           4
    87       23           3
    87       71           1
    87       83           2
    87       85           3
    87       87           4
    87       88           0
    87       95           2
    87      119           4
    88       24           3
    88       72           3
    88       84           3
    88       86           4
    88       87           4
    88       88           3
    88       96           3
    88      120           4
    89       25           1
    89       73           4
    89       81           4
    89       89           1
    89       90           1
    89       91           1
    89       93           3
    89      121           1
    90       26           3
    90       74           0
    90       82           2
    90       89           0
    90       90           1
    90       92           4
    90       94           2
    90      122           0
    91       27           3
    91       75           4
    91       83           2
    91       89           3
    91       91           1
    91       92           2
    91       95           4
    91      123           0
    92       28           2
    92       76           2
    92       84           0
    92       90           0
    92       91           2
    92       92           3
    92       96           2
    92      124           2
    93       29           3
    93       77           2
    93       85           3
    93       89           2
    93       93           1
    93       94           0
    93       95           4
    93      125           1
    94       30           4
    94       78           0
    94       86           4
    94       90           4
    94       93           3
    94       94           0
    94       96           2
    94      126           0
    95       31           1
    95       79           1
    95       87           2
    95       91           3
    95       93           2
    95       95           3
    95       96           1
    95      127           4
    96       32           1
    96       80           3
    96       88           0
    96       92           3
    96       94           2
    96       95           0
    96       96           1
    96      128           3
    97       33           4
    97       65           1
    97       97           0
    97       98           0
    97       99           1
    97      101           2
    97      105           2
    97      113           0
    98       34           1
    98       66           2
    98       97           0
    98       98           1
    98      100           3
    98      102           0
    98      106           4
    98      114           2
    99       35           3
    99       67           3
    99       97           3
    99       99           4
    99      100           1
    99      103           0
    99      107           3
    99      115           4
   100       36           1
   100       68           0
   100       98           3
   100       99           4
   100      100           4
   100      104           1
   100      108           4
   100      116           1
   101       37           2
   101       69           4
   101       97           3
   101      101           0
   101      102           3
   101      103           3
   101      109           2
   101      117           4
   102       38           4
   102       70           1
   102       98           2
   102      101           2
   102      102           4
   102      104           1
   102      110           4
   102      118           0
   103       39           4
   103       71           4
   103       99           3
   103      101           0
   103      103           0
   103      104           3
   103      111           4
   103      119           4
   104       40           0
   104       72           2
   104      100           1
   104      102           0
   104      103           3
   104      104           3
   104      112           2
   104      120           2
   105       41           0
   105       73           1
   105       97           2
   105      105           1
   105      106           4
   105      107           4
   105      109           0
   105      121           2
   106       42           2
   106       74           0
   106       98           2
   106      105           3
   106      106           3
   106      108           2
   106      110           1
   106      122           2
   107       43           1
   107       75           2
   107       99           3
   107      105           0
   107      107           4
   107      108           1
   107      111           1
   107      123           1
   108       44           1
   108       76           3
   108      100           4
   108      106           1
   108      107           4
   108      108           0
   108      112           3
   108      124           3
   109       45           4
   109       77           3
   109      101           4
   109      105           4
   109      109           4
   109      110           4
   109      111           3
   109      125           0
   110       46           0
   110       78           1
   110      102           1
   110      106           3
   110      109           4
   110      110           3
   110      112           1
   110      126           0
   111       47           0
   111       79           3
   111      103           4
   111      107           1
   111      109           3
   111      111           4
   111      112           2
   111      127           2
   112       48           1
   112       80           2
   112      104           1
   112      108           2
   112      110           3
   112      111           3
   112      112           0
   112      128           3
   113       49           4
   113       81           1
   113       97           2
   113      113           0
   113      114           1
   113      115           4
   113      117           4
   113      121           2
   114       50           1
   114       82           1
   114       98           3
   114      113           1
   114      114           1
   114      116           4
   114      118           0
   114      122           1
   115       51           0
   115       83           3
   115       99           3
   115      113           0
   115      115           1
   115      116           0
   115      119           2
   115      123           3
   116       52           4
   116       84           0
   116      100           0
   116      114           1
   116      115           4
   116      116           1
   116      120           1
   116      124           4
   117       53           1
   117       85           2
   117      101           3
   117      113           2
   117      117           3
   117      118           1
   117      119           1
   117      125           2
   118       54           4
   118       86           4
   118      102           3
   118      114           2
   118      117           0
   118      118           2
   118      120           3
   118      126           2
   119       55           3
   119       87           1
   119      103           2
   119      115           4
   119      117           1
   119      119           0
   119      120           3
   119      127           0
   120       56           4
   120       88           3
   120      104           3
   120      116           1
   120      118           0
   120      119           2
   120      120           0
   120      128           1
   121       57           1
   121       89           2
   121      105           2
   121      113           1
   121      121           0
   121      122           4
   121      123           0
   121      125           1
   122       58           2
   122       90           4
   122      106           0
   122      114           2
   122      121           3
   122      122           0
   122      124           2
   122      126           1
   123       59           0
   123       91           1
   123      107           1
   123      115           1
   123      121           1
   123      123           1
   123      124           2
   123      127           4
   124       60           3
   124       92           0
   124      108           3
   124      116           2
   124      122           0
   124      123           4
   124      124           2
   124      128           2
   125       61           1
   125       93           1
   125      109           4
   125      117           2
   125      121           0
   125      125           4
   125      126           1
   125      127           4
   126       62           3
   126       94           3
   126      110           0
   126      118           3
   126      122           3
   126      125           1
   126      126           0
   126      128           2
   127       63           3
   127       95           4
   127      111           4
   127      119           4
   127      123           2
   127      125           1
   127      127           2
   127      128           4
   128       64           2
   128       96           4
   128      112           4
   128      120           0
   128      124           2
   128      126           4
   128      127           1
   128      128           1
